data;
param n:=50;
param w:=1 184 2 151 3 -22 4 180 5 -94 6 34 7 30 8 116 9 -10 10 -257 11 -18 12 -33 13 59 14 -153 15 199 16 -21 17 198 18 -176 19 -168 20 -141 21 186 22 189 23 132 24 61 25 -173 26 -256 27 161 28 -58 29 17 30 -237 31 163 32 108 33 -268 34 -246 35 144 36 -135 37 67 38 71 39 -65 40 113 41 78 42 162 43 93 44 203 45 -210 46 20 47 -220 48 -95 49 198 50 -261;
